============================[ Problem Statistics ]=============================
|                                                                             |
|  Number of variables:          3426                                         |
|  Number of clauses:           10231                                         |
|  Parse time:                   0.00 s                                       |
|  Eliminated clauses:           0.11 Mb                                      |
|  Simplification time:          0.01 s                                       |
|                                                                             |
============================[ Search Statistics ]==============================
| Conflicts |          ORIGINAL         |          LEARNT          | Progress |
|           |    Vars  Clauses Literals |    Limit  Clauses Lit/Cl |          |
===============================================================================
|       100 |     952     4888    15630 |     1792      100     31 |  0.030 % |
|       250 |     952     4888    15630 |     1971      250     31 |  0.029 % |
|       475 |     952     4888    15630 |     2168      475     31 |  0.029 % |
|       812 |     952     4888    15630 |     2385      812     29 |  0.029 % |
|      1318 |     952     4888    15630 |     2624     1318     34 |  0.029 % |
|      2077 |     952     4888    15630 |     2886     2077     36 |  0.029 % |
|      3216 |     952     4888    15630 |     3175     1613     36 |  0.029 % |
|      4924 |     952     4888    15630 |     3492     1716     29 |  0.029 % |
|      7486 |     952     4888    15630 |     3841     2439     31 |  0.029 % |
|     11330 |     952     4888    15630 |     4226     2172     27 |  0.029 % |
|     17096 |     952     4888    15630 |     4648     3544     27 |  0.029 % |
|     25745 |     952     4888    15630 |     5113     2764     22 |  0.029 % |
|     38719 |     952     4888    15630 |     5624     5184     28 |  0.029 % |
|     58180 |     952     4888    15630 |     6187     4502     29 |  0.029 % |
|     87372 |     952     4888    15630 |     6806     5182     25 |  0.029 % |
|    131161 |     951     4884    15614 |     7486     3625     21 |  0.058 % |
|    196845 |     951     4884    15614 |     8235     4044     21 |  0.058 % |
|    295371 |     951     4884    15614 |     9058     5917     24 |  0.058 % |
|    443160 |     951     4884    15614 |     9964     5782     29 |  0.058 % |
|    664843 |     951     4884    15614 |    10961     9101     28 |  0.058 % |
|    997368 |     951     4884    15614 |    12057     7724     24 |  0.058 % |
|   1496156 |     951     4884    15614 |    13263    11703     29 |  0.058 % |
|   2244338 |     950     4880    15598 |    14589     6910     22 |  0.088 % |
|   3366612 |     949     4876    15582 |    16048    11911     25 |  0.117 % |
|   5050023 |     949     4876    15582 |    17653    15902     28 |  0.117 % |
|   7575139 |     949     4876    15582 |    19418    15974     26 |  0.117 % |
|  11362814 |     949     4876    15582 |    21360    16346     27 |  0.117 % |
|  17044326 |     949     4876    15582 |    23496    18794     29 |  0.117 % |
|  25566595 |     948     4872    15566 |    25846    21693     33 |  0.146 % |
|  38349998 |     948     4872    15566 |    28430    19458     30 |  0.146 % |
|  57525103 |     947     4868    15550 |    31273    28476     27 |  0.175 % |
===============================================================================
restarts              : 98300
conflicts             : 74515628       (26446 /sec)
decisions             : 91602426       (0.00 % random) (32510 /sec)
propagations          : 16562134783    (5878045 /sec)
conflict literals     : 2391806051     (52.53 % deleted)
Memory used           : 171.58 MB
CPU time              : 2817.63 s

INDETERMINATE
File /Users/damy17/Documents/hw-uni/master-1-uvt/verificare-formala/benchmark/input-files/benchmarkfile16.cnf timed out after 2880 seconds.
